33999 0
0 49 168 125 199 155 146 180 78 12 178 87 26 23 164 40 83 171 136 14 72 38 70 187 121 122 3 43 92 59 52 123 117 4 176 2 82 39 5 58 149 63 84 17 113 24 19 141 8 101 9 20 181 163 132 46 114 11 27 150 55 94 147 130 162 86 25 112 54 177 116 91 140 47 1 99 191 50 118 36 195 18 143 29 34 61 144 135 115 154 42 76 90 53 153 62 15 151 106 183 157 68 133 156 193 79 75 160 134 71 44 165 105 81 182 103 32 67 13 186 188 142 95 85 159 64 173 77 98 30 56 6 66 74 131 175 158 35 128 107 198 196 190 28 127 192 110 57 102 41 184 21 172 152 69 48 169 97 138 93 161 31 104 96 166 139 16 89 88 10 167 109 22 120 189 100 194 197 73 111 60 170 126 108 124 145 45 179 119 137 51 7 65 37 185 148 33 80 129 174
